db/data/307021248815654315392551577466228123.z3.out
-------------------
2500.297162983
